c instance by G2
c solution = 001111000
c Known solution cost is 450 
p cnf 9 30
w 14 78 86 19 60 70 67 32 24
-6 -7 -5 0
-4 -6 -1 0
3 -1 -7 0
-4 2 -9 0
-5 -6 -9 0
-5 -9 -3 0
9 5 8 0
8 -5 4 0
6 8 -3 0
-8 -6 -3 0
4 -5 -3 0
-8 5 7 0
-4 8 -2 0
-6 9 -8 0
-4 -8 -6 0
3 -8 7 0
7 5 2 0
7 3 8 0
2 -1 -8 0
-2 8 -3 0
4 2 1 0
2 -5 -1 0
1 8 5 0
-7 -2 5 0
-2 4 -7 0
-3 6 8 0
-3 -8 -6 0
-1 5 -8 0
6 9 4 0
-6 -1 -2 0
